results_rootrelaxation/bin012_050_035.srr.sol
solution status: optimal solution found
objective value:                                    0
_var59_                            0.0735306652019084 	(obj:0)
_var65_                             0.535324645806499 	(obj:0)
_var117_                             0.10115586408061 	(obj:0)
_var196_                           0.0221323585120033 	(obj:0)
_var238_                           0.0448826615652685 	(obj:0)
_var284_                           0.0778775854231413 	(obj:0)
_var285_                            0.397873418440792 	(obj:0)
_var337_                          0.00891639518145354 	(obj:0)
_var546_                           0.0777544700356103 	(obj:0)
_var681_                            0.241379555269334 	(obj:0)
_var683_                            0.084620520493976 	(obj:0)
_var686_                            0.418973501780436 	(obj:0)
_var690_                           0.0322609667399076 	(obj:0)
_var692_                            0.227983654064697 	(obj:0)
_var693_                            0.469943272217591 	(obj:0)
_var699_                            0.229759356769453 	(obj:0)
_var700_                            0.219102772937343 	(obj:0)
_var704_                           0.0688522804757946 	(obj:0)
_var707_                              0.3930553451019 	(obj:0)
_var708_                            0.360747026289874 	(obj:0)
_var710_                            0.252779566633835 	(obj:0)
_var712_                            0.156285514054092 	(obj:0)
_var713_                            0.131489601484957 	(obj:0)
_var716_                            0.349138665808018 	(obj:0)
_var720_                            0.592253674520792 	(obj:0)
_var722_                            0.120963235851198 	(obj:0)
_var723_                           0.0564673460110634 	(obj:0)
_var728_                             0.15843056292143 	(obj:0)
_var732_                            0.104210072732786 	(obj:0)
_var734_                            0.328351106144403 	(obj:0)
_var738_                           0.0436538752935822 	(obj:0)
_var739_                            0.162408136980078 	(obj:0)
_var744_                            0.098570440942497 	(obj:0)
_var745_                           0.0675051140237896 	(obj:0)
_var746_                            0.367963482081975 	(obj:0)
_var747_                           0.0923744223047254 	(obj:0)
_var749_                            0.482967459656034 	(obj:0)
_var750_                           0.0832733540419721 	(obj:0)
_var751_                             0.35993257064929 	(obj:0)
_var752_                            0.218139158269563 	(obj:0)
_var756_                            0.189214145010987 	(obj:0)
_var758_                          0.00773259337828937 	(obj:0)
_var760_                           0.0396194787483899 	(obj:0)
_var764_                            0.377613834381392 	(obj:0)
_var765_                            0.202039453746494 	(obj:0)
_var766_                           0.0630374460186375 	(obj:0)
_var767_                            0.169915808015758 	(obj:0)
_var768_                            0.251512898704448 	(obj:0)
_var770_                            0.201684313205548 	(obj:0)
_var776_                            0.209071236457308 	(obj:0)
_var777_                           0.0064919690885703 	(obj:0)
_var779_                           0.0820516705811089 	(obj:0)
_var787_                          0.00214031366012357 	(obj:0)
_var788_                            0.185594079096903 	(obj:0)
_var790_                           0.0134385180695539 	(obj:0)
_var791_                           0.0326563565421628 	(obj:0)
_var792_                            0.254721001591029 	(obj:0)
_var795_                             0.24701208424881 	(obj:0)
_var797_                           0.0146957155845199 	(obj:0)
_var803_                           0.0047991325100383 	(obj:0)
_var805_                           0.0605633002500212 	(obj:0)
_var807_                          0.00214031366012711 	(obj:0)
_var808_                           0.0154367755132964 	(obj:0)
_var812_                           0.0535338851428117 	(obj:0)
